c description: Random 3-CNF over 15 variables and 15 clauses
c generator: CNFgen (0.9.0)
c copyright: (C) 2012-2020 Massimo Lauria <massimo.lauria@uniroma1.it>
c url: https://massimolauria.net/cnfgen
c
p cnf 15 15
-4 9 14 0
4 11 15 0
2 -5 6 0
10 -11 12 0
-4 -13 14 0
9 12 -15 0
-2 5 -14 0
-1 9 -12 0
-10 -12 -14 0
-2 8 10 0
5 -8 -9 0
2 -7 -14 0
2 -4 8 0
-2 -6 15 0
3 8 -14 0